; printing sygus problem  

(set-logic LIA)
(declare-var x Int)

(declare-var y Int)

(declare-var k Int)

(declare-var z Int)

(declare-var c Int)

(declare-var s Int)

(declare-var z1 Int)

(define-fun implies ((b1 Bool)(b2 Bool)) Bool
 (or (not b1) b2))

(define-fun and3 ((b1 Bool)(b2 Bool)(b3 Bool)) Bool
 (and (and b1 b2) b3))

(define-fun or3 ((b1 Bool)(b2 Bool)(b3 Bool)) Bool
 (or (or b1 b2) b3))

(define-fun and4 ((b1 Bool)(b2 Bool)(b3 Bool)(b4 Bool)) Bool
 (and (and3 b1 b2 b3 ) b4))

(define-fun or4 ((b1 Bool)(b2 Bool)(b3 Bool)(b4 Bool)) Bool
 (or (or3 b1 b2 b3 ) b4))

(define-fun and5 ((b1 Bool)(b2 Bool)(b3 Bool)(b4 Bool)(b5 Bool)) Bool
 (and (and4 b1 b2 b3 b4 ) b5))

(define-fun or5 ((b1 Bool)(b2 Bool)(b3 Bool)(b4 Bool)(b5 Bool)) Bool
 (or (or4 b1 b2 b3 b4 ) b5))

(define-fun and6 ((b1 Bool)(b2 Bool)(b3 Bool)(b4 Bool)(b5 Bool)(b6 Bool)) Bool
 (and (and5 b1 b2 b3 b4 b5 ) b6))

(synth-fun __SYNTHFUN_inv((x Int)(y Int)(k Int)(z Int)(c Int)) Bool
((NTbool Bool)(NTInt Int))
((NTbool Bool ((not NTbool) (and NTbool NTbool) (or NTbool NTbool) (ite NTbool NTbool NTbool) (= NTInt NTInt) (< NTInt NTInt) (> NTInt NTInt) ))
(NTInt Int (x y k z c 0 1 (- NTInt) (+ NTInt NTInt) (- NTInt NTInt) (ite NTbool NTInt NTInt) ))
)
)

(constraint (=> (= z 1) (__SYNTHFUN_inv x y k z c )))
(constraint (=> (and3 (__SYNTHFUN_inv x y k z c ) (< z k) (= z1 (* z 2)) ) (__SYNTHFUN_inv x y k z1 c )))
(constraint (=> (and (__SYNTHFUN_inv x y k z c ) (>= z k)) (>= z 1)))
(check-synth)


